\ This file was automatically generated by Zimpl
\ set Food := {"Oatmeal", "Chicken", "Eggs", "Milk", "Pie", "Pork"};
\ set Nutrients := {"Energy", "Protein", "Calcium"};
\ set Attr := Nutrients + {"Servings", "Price"};
\ param needed [ Nutrients ] :=  <"Energy"> 2000 , <"Protein"> 55 , <"Calcium"> 800;
\ param data [ Food * Attr ] :=     |  "Servings", "Energy", "Protein", "Calcium", "Price"| | "Oatmeal"|       4 ,     110 ,   
\      4 ,        2 ,      3 | | "Chicken"|          3 ,     205 ,       32 ,       12 ,     24 | | "Eggs"   |          2 ,    
\  160 ,       13 ,       54 ,     13 | | "Milk"   |          8 ,     160 ,        8 ,      284 ,      9 | | "Pie"    |        
\   2 ,     420 ,        4 ,       22 ,     20 | | "Pork"   |          2 ,     260 ,       14 ,       80 ,     19 |;
\ var x[<f> in Food] integer >= 0 <= data [f , "Servings"];
\ minimize cost : sum <f> in Food : data [f , "Price"] * x[f];
\ subto need : forall <n> in Nutrients do  sum <f> in Food : data [f, n] * x [f] >= needed [n];
\Problem name: diet.zpl
Minimize
 cost:  +3 x$Oatmeal +24 x$Chicken +13 x$Eggs +9 x$Milk +20 x$Pie +19 x$Pork
 
Subject to
 need_1:
  +260 x$Pork +420 x$Pie +160 x$Milk +160 x$Eggs +205 x$Chicken +110 x$Oatmeal
  >= 2000
 need_2:
  +14 x$Pork +4 x$Pie +8 x$Milk +13 x$Eggs +32 x$Chicken +4 x$Oatmeal
  >= 55
 need_3:
  +80 x$Pork +22 x$Pie +284 x$Milk +54 x$Eggs +12 x$Chicken +2 x$Oatmeal
  >= 800
Bounds
 0 <= x$Oatmeal <= 4
 0 <= x$Chicken <= 3
 0 <= x$Eggs <= 2
 0 <= x$Milk <= 8
 0 <= x$Pie <= 2
 0 <= x$Pork <= 2
General
 x$Oatmeal
 x$Chicken
 x$Eggs
 x$Milk
 x$Pie
 x$Pork
End
